peakDumbCharging = 14800; 
Machine = anon_enum(16); 
machineSpeed = [3700,3700,3700,3700,3700,3700,3700,3700,3700,3700,3700,3700,3700,3700,3700,3700]; 
machineLoad = [3700,3700,3700,3700,3700,3700,3700,3700,3700,3700,3700,3700,3700,3700,3700,3700]; 
Car = anon_enum(12); 
demandCar = [2680,17120,10160,11960,4200,6240,7960,7560,35400,30480,22960,520]; 
arrivalCar = [80,74,72,66,63,52,50,46,45,44,40,34]; 
departureCar = [82,80,77,71,66,57,54,49,59,59,50,35]; 
